NAME : H-n25-k9
CAPACITY : 105
NODE_COORD_SECTION
1   379   121
2   265   330
3   342   406
4   494   124
5   251   133
6   176   360
7   469   409
8   378   455
9   201   475
10   488   336
11   243   205
12   469   74
13   167   124
14   472   105
15   310   373
16   185   269
17   396   354
18   363   321
19   101   369
20   268   344
21   109   485
22   80   107
23   377   442
24   97   373
25   330   478
DEMAND_SECTION
1   0
2   7
3   58
4   64
5   13
6   73
7   80
8   25
9   100
10   19
11   9
12   72
13   51
14   39
15   19
16   78
17   75
18   94
19   10
20   96
21   42
22   63
23   71
24   99
25   50
DEPOT_SECTION
    1
    -1
EOF